NAME : eil101
COMMENT : 101-city problem (Christofides/Eilon)
TYPE : TSP
DIMENSION : 101
EDGE_WEIGHT_TYPE : EUC_2D
NODE_COORD_SECTION
1 41 49
2 35 17
3 55 45
4 55 20
5 15 30
6 25 30
7 20 50
8 10 43
9 55 60
10 30 60
11 20 65
12 50 35
13 30 25
14 15 10
15 30 5
16 10 20
17 5 30
18 20 40
19 15 60
20 45 65
EOF
